c Output_time 26.03.2020 18:15:38_+0100 1585242938490678859
c ** Program information **
c program_name                          "QBRG_debug"
c version                               "0.3.20"
c date                                  "25.3.2020"
c gid_id                                "673970833836058123f633335630c185360d632e"
c author                                "Oliver Kullmann"
c url                                   "https://github.com/OKullmann/oklibrary/blob/master/Satisfiability/Transformers/Generators/Random/QBRG.cpp"
c ** Machine information **
c machine_name                          "chyna-Lenovo-G50-70"
c bogomips                              3791.08
c ** Compilation information **
c compiler_version                      "g++ 7.5.0"
c compilation_date                      "Mar_26_2020 11:16:30"
c compilation_options                   "--std=c++17 -pedantic -fmax-errors=5 -Wall -Wextra -g -D_GLIBCXX_DEBUG"
c NDEBUG                                0
c OPTIMIZE                              0
c ** Parameters **
c command-line                          "./QBRG_debug" "a40 e40 a40 40" "692*1,1|2-2,1|3-3,1|4-4,1" "" "1,t" ""
c output                                "QuBlRaGe_160_692_1585242938490521073.qdimacs"
c options                               "filtered,renamed"
c num_quantifier_blocks                 4
c  quantifier_blocks                    1:a1-40 2:e41-80 3:a81-120 4:e121-160
c num_clause-blocks                     1
c  clause-blocks                        692 * {1-40,1,1/2} | {41-80,1,1/2} | {81-120,1,1/2} | {121-160,1,1/2}
c num_e-seeds                           37+2=39
c  e-seeds                              1 0 1 0 5 160 2 40 0 40 1 40 0 40 1 692 4 1 1 1 1 2 2 2 1 1 2 3 3 1 1 2 4 4 1 1 2 1 1585242938490520009
p cnf 160 692
a 1 2 3 4 5 6 7 8 9 10 11 12 13 14 15 16 17 18 19 20 21 22 23 24 25 26 27 28 29 30 31 32 33 34 35 36 37 38 39 40 0
e 41 42 43 44 45 46 47 48 49 50 51 52 53 54 55 56 57 58 59 60 61 62 63 64 65 66 67 68 69 70 71 72 73 74 75 76 77 78 79 80 0
a 81 82 83 84 85 86 87 88 89 90 91 92 93 94 95 96 97 98 99 100 101 102 103 104 105 106 107 108 109 110 111 112 113 114 115 116 117 118 119 120 0
e 121 122 123 124 125 126 127 128 129 130 131 132 133 134 135 136 137 138 139 140 141 142 143 144 145 146 147 148 149 150 151 152 153 154 155 156 157 158 159 160 0
-39 44 -102 -121 0
38 -78 102 -121 0
5 -67 -108 -121 0
-28 60 110 -121 0
25 -51 -117 -121 0
-21 77 -119 -121 0
-29 47 120 -121 0
-38 80 83 121 0
-35 -51 -85 121 0
10 53 88 121 0
-16 69 -91 121 0
-9 -53 -92 121 0
-37 47 94 121 0
-2 -73 101 121 0
5 73 106 121 0
-24 -59 -110 121 0
-35 62 114 121 0
11 54 83 -122 0
-10 -63 86 -122 0
-8 64 89 -122 0
-13 -51 -95 -122 0
19 58 98 -122 0
38 70 -105 -122 0
-16 -57 107 -122 0
21 -64 -112 -122 0
4 55 -116 -122 0
-32 43 -120 -122 0
-8 54 -81 122 0
17 67 -85 122 0
11 79 -88 122 0
-3 -59 88 122 0
-18 -53 92 122 0
9 -73 103 122 0
25 -52 110 122 0
31 53 -111 122 0
-1 73 -86 -123 0
5 60 -95 -123 0
-38 54 100 -123 0
23 -68 -104 -123 0
-33 44 106 -123 0
39 -42 118 -123 0
-22 -51 -119 -123 0
-27 42 119 -123 0
31 56 -81 123 0
-30 66 85 123 0
-18 -52 -86 123 0
22 47 -87 123 0
-5 -41 -90 123 0
31 -71 -90 123 0
38 44 94 123 0
-7 55 102 123 0
-2 -70 114 123 0
5 -56 -86 -124 0
-11 56 92 -124 0
13 58 -93 -124 0
-26 43 -99 -124 0
-29 -53 101 -124 0
34 73 114 -124 0
33 48 87 124 0
-3 -53 -96 124 0
37 -58 100 124 0
35 -62 -102 124 0
32 -79 103 124 0
-7 -70 -108 124 0
3 74 84 -125 0
-35 71 -86 -125 0
-35 -42 87 -125 0
39 -47 -94 -125 0
-9 58 -98 -125 0
23 -69 -100 -125 0
22 -53 105 -125 0
20 57 108 -125 0
-34 57 108 -125 0
38 -73 110 -125 0
-4 80 -112 -125 0
-8 -67 -113 -125 0
-7 -70 113 -125 0
26 80 82 125 0
-39 55 -83 125 0
21 -51 -94 125 0
23 -65 95 125 0
-36 42 97 125 0
-34 57 99 125 0
3 45 103 125 0
-32 -56 116 125 0
-6 44 120 125 0
31 79 83 -126 0
-23 -44 85 -126 0
-1 58 -91 -126 0
3 -54 -93 -126 0
-28 50 102 -126 0
21 -51 110 -126 0
-19 54 113 -126 0
16 -65 113 -126 0
-24 49 115 -126 0
-2 62 -82 126 0
-26 -76 -92 126 0
27 71 92 126 0
23 45 93 126 0
36 55 -102 126 0
20 79 105 126 0
-21 74 -113 126 0
10 -62 -115 126 0
-39 68 82 -127 0
22 72 86 -127 0
-14 -43 92 -127 0
32 45 -99 -127 0
10 -42 -106 -127 0
18 50 -108 -127 0
-34 -61 -109 -127 0
20 -62 112 -127 0
36 -41 114 -127 0
-4 66 117 -127 0
-6 59 118 -127 0
10 -50 -120 -127 0
12 65 120 -127 0
26 64 81 127 0
9 -63 85 127 0
28 -75 -93 127 0
-12 48 94 127 0
22 80 95 127 0
7 80 101 127 0
-18 64 -108 127 0
11 -75 108 127 0
2 50 112 127 0
-32 -61 -115 127 0
34 -47 -116 127 0
-32 74 116 127 0
-36 -67 91 -128 0
2 68 93 -128 0
-33 66 98 -128 0
19 58 -103 -128 0
33 -47 -108 -128 0
-4 68 -108 -128 0
-21 -72 112 -128 0
-10 66 81 128 0
6 54 -88 128 0
22 -54 -94 128 0
-27 -68 97 128 0
5 -54 -101 128 0
-1 64 102 128 0
-12 -64 110 128 0
-3 -75 -119 128 0
16 -51 93 -129 0
8 -56 -100 -129 0
14 55 105 -129 0
-34 -79 -109 -129 0
15 -52 -111 -129 0
13 49 113 -129 0
-28 -80 84 129 0
36 -64 -90 129 0
34 -41 93 129 0
-14 61 94 129 0
-35 -72 -99 129 0
-2 59 -106 129 0
-19 58 -109 129 0
35 -43 117 129 0
34 -74 -89 -130 0
35 47 97 -130 0
11 -77 97 -130 0
-12 77 -99 -130 0
21 80 101 -130 0
-18 49 106 -130 0
-19 58 110 -130 0
19 -67 -111 -130 0
-5 -48 86 130 0
-9 -74 -94 130 0
-21 -58 -96 130 0
27 76 97 130 0
16 -59 -83 -131 0
-12 64 -83 -131 0
-35 -74 -87 -131 0
30 61 98 -131 0
-11 80 103 -131 0
2 -67 105 -131 0
-9 -68 107 -131 0
-34 65 110 -131 0
-26 -67 110 -131 0
29 -58 -117 -131 0
32 -47 83 131 0
11 79 84 131 0
-33 54 -86 131 0
14 67 -91 131 0
33 -65 91 131 0
-25 45 107 131 0
-33 77 108 131 0
-39 -57 -111 131 0
3 -73 117 131 0
14 -51 86 -132 0
-11 -46 -91 -132 0
-35 48 94 -132 0
-12 -79 96 -132 0
29 67 100 -132 0
3 73 -104 -132 0
38 71 105 -132 0
8 77 -107 -132 0
6 43 108 -132 0
21 52 91 132 0
-25 -56 92 132 0
-31 -44 97 132 0
-33 -43 98 132 0
-29 -48 103 132 0
3 -60 105 132 0
-14 79 -116 132 0
38 -63 -84 -133 0
6 44 87 -133 0
-28 71 -94 -133 0
21 44 97 -133 0
-27 61 -105 -133 0
10 68 105 -133 0
-19 61 -110 -133 0
22 67 -120 -133 0
-36 79 -82 133 0
-1 67 84 133 0
-8 68 86 133 0
-10 -63 -98 133 0
7 49 -101 133 0
-17 41 105 133 0
1 58 -113 133 0
38 -72 -113 133 0
30 -75 -115 133 0
-31 58 -90 -134 0
22 73 -92 -134 0
15 60 -96 -134 0
-28 -64 96 -134 0
5 -74 -104 -134 0
-38 41 104 -134 0
5 75 104 -134 0
23 46 106 -134 0
-27 51 -108 -134 0
32 -71 -113 -134 0
35 -54 92 134 0
-16 -52 96 134 0
-34 -60 100 134 0
-26 69 -101 134 0
-11 53 -105 134 0
23 -50 105 134 0
13 73 108 134 0
-17 -57 -109 134 0
-34 71 -111 134 0
7 -72 -117 134 0
2 -70 -118 134 0
-34 -52 -119 134 0
-5 56 -119 134 0
6 -49 87 -135 0
35 69 88 -135 0
9 -70 -92 -135 0
32 -41 -100 -135 0
14 -67 110 -135 0
-30 -71 114 -135 0
-6 59 115 -135 0
35 -72 -117 -135 0
1 80 -82 135 0
-26 69 99 135 0
-6 -77 -100 135 0
-12 79 102 135 0
17 -69 -109 135 0
-1 73 109 135 0
-29 -65 -87 -136 0
36 42 90 -136 0
-29 52 -98 -136 0
20 -71 108 -136 0
-33 -78 108 -136 0
-15 -54 111 -136 0
-20 -67 118 -136 0
26 65 83 136 0
-12 -77 -84 136 0
-38 58 84 136 0
26 46 -95 136 0
-3 -53 98 136 0
12 -55 -100 136 0
12 74 100 136 0
-1 80 102 136 0
1 -56 103 136 0
-18 -53 -111 136 0
-20 66 -112 136 0
35 -67 -120 136 0
-7 59 81 -137 0
-26 -80 97 -137 0
37 -68 101 -137 0
23 -65 114 -137 0
-35 -42 -117 -137 0
2 -55 119 -137 0
-1 -44 -88 137 0
-29 65 95 137 0
34 -54 -102 137 0
21 62 -103 137 0
-33 -44 -104 137 0
20 -75 -107 137 0
-2 57 -112 137 0
23 50 116 137 0
21 -56 -93 -138 0
-15 -41 -118 -138 0
1 -41 120 -138 0
-28 -67 92 138 0
24 51 93 138 0
37 79 -99 138 0
-16 52 -103 138 0
-15 77 -107 138 0
-23 46 110 138 0
32 -66 112 138 0
20 -73 113 138 0
-39 -49 -84 -139 0
19 -52 84 -139 0
31 -66 -87 -139 0
-19 65 -91 -139 0
21 -76 -92 -139 0
37 46 92 -139 0
20 71 92 -139 0
20 48 95 -139 0
19 -80 95 -139 0
-19 -52 -107 -139 0
-14 -55 109 -139 0
-1 70 115 -139 0
28 67 120 -139 0
-3 -70 82 139 0
33 -41 84 139 0
2 -51 85 139 0
8 43 96 139 0
25 -51 118 139 0
-13 -60 118 139 0
-28 57 86 -140 0
19 56 -87 -140 0
-39 60 -87 -140 0
21 47 99 -140 0
18 79 -100 -140 0
6 59 -105 -140 0
11 41 -109 -140 0
-14 -59 109 -140 0
16 -41 -113 -140 0
32 73 84 140 0
6 -57 -94 140 0
-38 -80 96 140 0
-23 -68 105 140 0
27 63 -114 140 0
-37 -65 -115 140 0
2 55 115 140 0
2 -72 81 -141 0
-23 41 87 -141 0
16 -75 89 -141 0
-23 62 -94 -141 0
24 -56 -95 -141 0
-28 67 -100 -141 0
34 70 100 -141 0
35 76 -108 -141 0
5 -78 113 -141 0
34 -63 -119 -141 0
-35 53 81 141 0
-37 -75 88 141 0
7 -59 -90 141 0
-13 74 -90 141 0
-18 42 95 141 0
9 73 99 141 0
24 63 105 141 0
-15 -77 -108 141 0
-13 70 -109 141 0
-31 -58 -116 141 0
1 -75 -81 -142 0
-9 -46 -100 -142 0
12 53 -103 -142 0
18 71 105 -142 0
8 54 -113 -142 0
5 73 -116 -142 0
6 52 118 -142 0
19 -75 119 -142 0
-29 -51 81 142 0
-20 60 91 142 0
32 72 -95 142 0
32 -66 99 142 0
37 -63 110 142 0
-5 -79 -114 142 0
-4 43 -118 142 0
29 61 118 142 0
30 -53 81 -143 0
25 54 87 -143 0
11 -65 94 -143 0
-25 65 102 -143 0
4 67 110 -143 0
17 -58 111 -143 0
-19 -46 113 -143 0
-1 55 -114 -143 0
-39 57 86 143 0
35 63 101 143 0
9 -62 -105 143 0
-7 68 111 143 0
18 -47 -113 143 0
-6 -60 116 143 0
20 59 117 143 0
8 -71 82 -144 0
11 47 -83 -144 0
-30 -77 -88 -144 0
-26 -55 89 -144 0
-30 46 100 -144 0
13 80 -101 -144 0
-12 75 -102 -144 0
29 -44 -105 -144 0
-20 -65 -106 -144 0
33 -61 -112 -144 0
19 76 -81 144 0
10 -75 81 144 0
-4 73 -85 144 0
-11 -50 86 144 0
-30 66 -87 144 0
12 -67 -103 144 0
-31 67 104 144 0
-18 70 -106 144 0
11 66 115 144 0
-38 48 118 144 0
-23 -54 81 -145 0
8 -58 -83 -145 0
33 56 85 -145 0
-31 77 90 -145 0
-8 48 -92 -145 0
-36 -69 -92 -145 0
17 62 -93 -145 0
-12 61 -101 -145 0
-1 62 102 -145 0
4 56 -108 -145 0
-20 41 -110 -145 0
27 77 -110 -145 0
40 -52 119 -145 0
-18 -46 84 145 0
24 79 99 145 0
-36 -66 103 145 0
-8 68 108 145 0
34 80 -111 145 0
-36 -53 111 145 0
-18 -42 112 145 0
26 75 115 145 0
-40 -76 -120 145 0
-16 -58 -82 -146 0
-33 -56 83 -146 0
3 45 84 -146 0
-40 -45 -87 -146 0
18 -44 -88 -146 0
-20 -41 -94 -146 0
-9 79 97 -146 0
6 -56 98 -146 0
-18 53 103 -146 0
19 -46 106 -146 0
11 -46 112 -146 0
-16 -76 113 -146 0
-9 69 -114 -146 0
37 60 -119 -146 0
-9 74 119 -146 0
-31 50 -97 146 0
9 66 -100 146 0
39 63 -102 146 0
7 69 104 146 0
37 -79 -105 146 0
18 66 105 146 0
12 -44 -109 146 0
3 64 -112 146 0
-37 50 -113 146 0
38 72 -120 146 0
16 -72 -87 -147 0
-25 -41 90 -147 0
-10 54 -91 -147 0
-1 -59 -96 -147 0
-26 -72 98 -147 0
10 -43 -114 -147 0
-24 -48 -86 147 0
-26 -42 -106 147 0
9 -58 -107 147 0
18 -59 112 147 0
31 -64 -113 147 0
-8 -54 115 147 0
-19 -42 84 -148 0
20 -66 85 -148 0
12 -80 -87 -148 0
-30 71 93 -148 0
6 -47 -108 -148 0
27 -45 111 -148 0
22 61 111 -148 0
-23 -64 -82 148 0
-1 50 84 148 0
26 55 -90 148 0
34 -59 -97 148 0
29 65 -100 148 0
-36 42 100 148 0
34 50 115 148 0
32 62 83 -149 0
31 -43 -85 -149 0
36 -61 88 -149 0
-22 68 89 -149 0
39 52 96 -149 0
32 -44 -101 -149 0
36 65 -101 -149 0
-28 -43 106 -149 0
10 48 -107 -149 0
23 -79 108 -149 0
33 -60 109 -149 0
6 41 -110 -149 0
-14 64 -114 -149 0
27 -61 120 -149 0
18 -78 -87 149 0
33 59 -90 149 0
-34 -57 -92 149 0
-18 -62 97 149 0
-28 -78 97 149 0
31 -45 104 149 0
-27 -79 -110 149 0
5 -78 111 149 0
1 -41 -120 149 0
22 -52 84 -150 0
39 -76 -91 -150 0
-10 -65 -95 -150 0
-35 77 95 -150 0
32 46 104 -150 0
-26 -68 -106 -150 0
-20 -59 -115 -150 0
-31 51 86 150 0
18 79 86 150 0
5 50 90 150 0
16 48 -99 150 0
-29 78 -100 150 0
40 -74 -102 150 0
40 -44 103 150 0
9 64 -110 150 0
20 64 -89 -151 0
2 69 91 -151 0
19 41 103 -151 0
35 -66 105 -151 0
5 -44 -106 -151 0
3 -64 -110 -151 0
-3 69 -113 -151 0
34 -54 114 -151 0
-19 -70 117 -151 0
-12 -73 -83 151 0
29 -65 -87 151 0
-6 -55 -88 151 0
-23 -69 91 151 0
37 42 -95 151 0
-4 -77 -100 151 0
7 53 107 151 0
36 75 114 151 0
25 78 114 151 0
-2 70 -115 151 0
-26 -55 -116 151 0
-18 58 -85 -152 0
22 68 -88 -152 0
2 -79 -88 -152 0
24 -79 -94 -152 0
-31 54 96 -152 0
38 51 -107 -152 0
33 -68 -114 -152 0
10 -44 -81 152 0
15 63 -81 152 0
-15 -62 84 152 0
14 -59 -87 152 0
-12 59 -96 152 0
22 65 106 152 0
-21 41 -109 152 0
19 -76 -110 152 0
-18 45 -118 152 0
-6 70 -120 152 0
35 -47 -86 -153 0
21 -73 -86 -153 0
33 -50 -89 -153 0
35 -44 -97 -153 0
24 -44 -99 -153 0
-19 -63 101 -153 0
-33 43 -103 -153 0
7 -54 103 -153 0
-6 -79 -82 153 0
3 73 -88 153 0
-33 73 88 153 0
-32 76 94 153 0
-18 -53 96 153 0
19 62 100 153 0
17 44 -101 153 0
35 -78 102 153 0
10 45 -112 153 0
-18 69 118 153 0
-40 69 -119 153 0
32 -70 -120 153 0
24 -77 -82 -154 0
15 80 -84 -154 0
30 65 101 -154 0
-22 -50 102 -154 0
6 -43 -104 -154 0
33 -65 -107 -154 0
-16 46 -108 -154 0
40 55 118 -154 0
-2 43 -82 154 0
9 49 -88 154 0
-14 -68 -89 154 0
-25 -76 -94 154 0
-20 75 -106 154 0
24 50 -108 154 0
7 74 111 154 0
-38 -70 90 -155 0
-36 57 -94 -155 0
29 -67 97 -155 0
-24 64 108 -155 0
-16 51 -90 155 0
-15 51 -104 155 0
-14 78 104 155 0
17 49 106 155 0
16 -48 -109 155 0
-3 -50 -110 155 0
-6 -60 115 155 0
-19 79 -116 155 0
14 -60 116 155 0
-15 -55 84 -156 0
40 53 -90 -156 0
24 -43 -94 -156 0
12 50 -94 -156 0
9 -58 95 -156 0
-19 -53 101 -156 0
-37 -72 -112 -156 0
12 41 113 -156 0
29 63 83 156 0
23 -54 -87 156 0
22 -71 88 156 0
-39 -70 -92 156 0
16 -58 101 156 0
4 49 -107 156 0
13 43 -108 156 0
18 74 114 156 0
19 -42 -115 156 0
23 78 116 156 0
-7 66 117 156 0
30 57 91 -157 0
-22 70 94 -157 0
32 75 102 -157 0
-27 71 -110 -157 0
-19 -65 112 -157 0
-21 58 113 -157 0
14 70 114 -157 0
-26 77 -116 -157 0
36 58 -119 -157 0
37 -67 102 157 0
8 -61 -104 157 0
12 -54 -112 157 0
40 41 116 157 0
-36 50 -119 157 0
-1 75 -87 -158 0
32 64 -98 -158 0
-18 52 117 -158 0
-29 60 119 -158 0
35 72 119 -158 0
22 71 85 158 0
-8 -62 90 158 0
-33 -52 -91 158 0
5 -50 -94 158 0
6 -53 -94 158 0
-40 -44 -101 158 0
-4 56 -103 158 0
32 70 109 158 0
-24 50 117 158 0
26 -71 118 158 0
13 60 -83 -159 0
27 67 93 -159 0
-33 -77 103 -159 0
-27 57 -104 -159 0
-28 76 -107 -159 0
-20 76 107 -159 0
1 58 108 -159 0
7 -76 -112 -159 0
1 56 112 -159 0
5 59 116 -159 0
-19 64 116 -159 0
16 -61 -84 159 0
7 43 89 159 0
-35 -44 89 159 0
2 -48 -94 159 0
-2 80 94 159 0
3 68 97 159 0
-7 57 -101 159 0
-32 -70 102 159 0
-33 -49 -104 159 0
-22 -58 113 159 0
18 -72 -114 159 0
-18 61 -115 159 0
15 -52 -118 159 0
10 -45 -97 -160 0
-27 -63 97 -160 0
34 -48 100 -160 0
22 58 116 -160 0
35 -44 -119 -160 0
9 49 -84 160 0
3 51 89 160 0
23 -50 -94 160 0
35 63 94 160 0
-28 -51 -95 160 0
33 77 95 160 0
-39 -63 -101 160 0
9 -43 -104 160 0
-18 -67 -104 160 0
-7 -53 -105 160 0
39 52 115 160 0
